NAME: rue_20_2
TYPE: TSP
DIMENSION: 20
EDGE_WEIGHT_TYPE: EUC_2D
NODE_COORD_SECTION
1 1 27
2 24 35
3 13 29
4 1 35
5 7 1
6 23 12
7 28 16
8 1 32
9 9 9
10 6 28
11 28 28
12 15 3
13 4 17
14 3 22
15 4 11
16 21 9
17 30 6
18 11 36
19 5 3
20 31 11

